c read Graph
c width = 122
c time = 69 ms
c width = 13
c time = 128 ms
c width = 12
c time = 162 ms
c width = 11
c time = 205 ms
c width = 10
c time = 270 ms
c width = 9
c time = 4910 ms
c width = 9
c time = 4993 ms
s td 125 10 135
b 1 1 2 16
b 2 2 3 16 17
b 3 13 14 29 30
b 4 3 16 17 31
b 5 13 29 30 45
b 6 91 106 107 122
b 7 105 119 120 134
b 8 91 107 122 123
b 9 105 119 133 134
b 10 3 4 17 18 31
b 11 4 5 17 18 19 31
b 12 5 6 17 18 19 20 31
b 13 6 7 17 18 19 20 21 31
b 14 7 8 17 18 19 20 21 22 31
b 15 8 9 17 18 19 20 21 22 23 31
b 16 9 17 18 19 20 21 22 23 31 32
b 17 9 18 19 20 21 22 23 31 32 33
b 18 9 19 20 21 22 23 31 32 33 34
b 19 9 20 21 22 23 31 32 33 34 35
b 20 9 21 22 23 31 32 33 34 35 36
b 21 9 22 23 31 32 33 34 35 36 37
b 22 9 23 31 32 33 34 35 36 37 46
b 23 9 23 32 33 34 35 36 37 46 47
b 24 9 23 33 34 35 36 37 46 47 48
b 25 9 23 34 35 36 37 46 47 48 49
b 26 9 23 35 36 37 46 47 48 49 50
b 27 9 23 36 37 46 47 48 49 50 51
b 28 9 23 37 46 47 48 49 50 51 61
b 29 9 23 37 47 48 49 50 51 61 62
b 30 9 23 37 48 49 50 51 61 62 63
b 31 9 23 37 49 50 51 61 62 63 64
b 32 9 23 37 50 51 61 62 63 64 65
b 33 9 23 37 51 61 62 63 64 65 76
b 34 9 23 37 51 62 63 64 65 76 77
b 35 9 23 37 51 63 64 65 76 77 78
b 36 9 23 37 51 64 65 76 77 78 79
b 37 9 23 37 51 65 76 77 78 79 91
b 38 9 23 37 51 65 77 78 79 91 92
b 39 9 23 37 51 65 78 79 91 92 93
b 40 9 23 37 51 65 79 91 92 93 107
b 41 9 23 37 51 65 79 91 93 107 123
b 42 9 23 37 51 65 79 93 107 108 123
b 43 9 23 37 51 65 79 93 94 108 123
b 44 9 23 37 51 65 79 80 94 108 123
b 45 9 23 37 51 65 66 80 94 108 123
b 46 9 23 37 51 52 66 80 94 108 123
b 47 9 23 37 38 52 66 80 94 108 123
b 48 9 23 24 38 52 66 80 94 108 123
b 49 9 24 38 52 66 80 94 108 109 123
b 50 9 24 38 52 66 80 94 95 109 123
b 51 9 24 38 52 66 80 81 95 109 123
b 52 9 24 38 52 66 67 81 95 109 123
b 53 9 24 38 52 53 67 81 95 109 123
b 54 9 24 38 39 53 67 81 95 109 123
b 55 9 24 25 39 53 67 81 95 109 123
b 56 9 25 39 53 67 81 95 109 123 124
b 57 9 25 39 53 67 81 95 109 110 124
b 58 9 25 39 53 67 81 95 96 110 124
b 59 9 25 39 53 67 81 82 96 110 124
b 60 9 25 39 53 67 68 82 96 110 124
b 61 9 25 39 53 54 68 82 96 110 124
b 62 9 25 39 40 54 68 82 96 110 124
b 63 9 25 40 54 68 82 96 110 124 125
b 64 9 25 40 54 68 82 96 110 111 125
b 65 9 25 40 54 68 82 96 97 111 125
b 66 9 25 40 54 68 82 83 97 111 125
b 67 9 25 40 54 68 69 83 97 111 125
b 68 9 25 40 54 55 69 83 97 111 125
b 69 9 25 40 41 55 69 83 97 111 125
b 70 9 25 41 55 69 83 97 111 125 126
b 71 9 25 41 55 69 83 97 111 112 126
b 72 9 25 41 55 69 83 97 98 112 126
b 73 9 25 41 55 69 83 84 98 112 126
b 74 9 25 41 55 69 70 84 98 112 126
b 75 9 25 41 55 56 70 84 98 112 126
b 76 9 25 41 56 70 84 98 112 126 127
b 77 9 25 41 56 70 84 98 112 113 127
b 78 9 25 41 56 70 84 98 99 113 127
b 79 9 25 41 56 70 84 85 99 113 127
b 80 9 25 41 56 70 71 85 99 113 127
b 81 9 25 41 56 71 85 99 113 127 128
b 82 9 25 41 56 71 85 99 113 114 128
b 83 9 25 41 56 71 85 99 100 114 128
b 84 9 25 41 56 71 85 86 100 114 128
b 85 9 25 41 56 71 72 86 100 114 128
b 86 9 25 41 56 72 86 100 114 128 129
b 87 9 25 41 56 72 86 100 114 115 129
b 88 9 25 41 56 72 86 100 101 115 129
b 89 9 25 41 56 72 86 101 115 129 130
b 90 9 25 41 56 72 86 101 115 116 130
b 91 9 25 41 56 72 86 101 102 116 130
b 92 9 25 41 56 72 86 88 102 116 130
b 93 9 25 41 56 72 88 102 116 130 132
b 94 9 25 41 56 72 88 102 116 117 132
b 95 9 25 41 56 72 88 102 117 118 132
b 96 9 25 41 56 72 88 102 104 118 132
b 97 9 25 41 56 72 88 90 104 118 132
b 98 9 25 41 56 72 74 88 90 104 132
b 99 9 25 41 56 58 72 74 88 90 132
b 100 9 25 41 42 56 58 72 74 90 132
b 101 9 25 41 42 58 60 72 74 90 132
b 102 9 13 25 28 41 42 58 60 74
b 103 13 28 42 44 58 60 74
b 104 28 42 43 44 58
b 105 13 28 44 45 60
b 106 13 28 29 44 45
b 107 44 58 59 60 74
b 108 9 13 25 27 28 41 42
b 109 9 11 13 25 27 41
b 110 9 10 11 25
b 111 11 25 26 27 41
b 112 11 12 13 27
b 113 72 86 87 88 102
b 114 42 56 57 58 72
b 115 116 130 131 132
b 116 60 74 75 90
b 117 88 102 103 104 118
b 118 90 104 118 132 133
b 119 90 104 105 118 133
b 120 104 105 118 119 133
b 121 74 88 89 90 104
b 122 58 72 73 74 88
b 123 120 134 135
b 124 106 121 122
b 125 14 15 30
1 2
2 4
3 125
3 5
4 10
5 106
6 124
6 8
7 123
7 9
8 41
9 120
10 11
11 12
12 13
13 14
14 15
15 16
16 17
17 18
18 19
19 20
20 21
21 22
22 23
23 24
24 25
25 26
26 27
27 28
28 29
29 30
30 31
31 32
32 33
33 34
34 35
35 36
36 37
37 38
38 39
39 40
40 41
41 42
42 43
43 44
44 45
45 46
46 47
47 48
48 49
49 50
50 51
51 52
52 53
53 54
54 55
55 56
56 57
57 58
58 59
59 60
60 61
61 62
62 63
63 64
64 65
65 66
66 67
67 68
68 69
69 70
70 71
71 72
72 73
73 74
74 75
75 76
76 77
77 78
78 79
79 80
80 81
81 82
82 83
83 84
84 85
85 86
86 87
87 88
88 89
89 90
90 91
91 92
92 113
92 93
93 115
93 94
94 95
95 96
96 117
96 97
97 118
97 98
98 121
98 99
99 122
99 100
100 114
100 101
101 102
101 116
102 108
102 103
103 105
103 107
103 104
105 106
108 109
109 110
109 112
109 111
118 119
119 120
